Route #1: 1 18 41 10 33 4 45 33 51 19 51 26 51 41 13 1 
Route #2: 1 9 8 54 15 54 12 39 11 39 54 36 9 20 9 35 1 
Route #3: 1 31 46 31 30 6 16 38 37 38 21 38 48 6 49 31 1 
Route #4: 1 27 1 
Route #5: 1 5 31 3 34 2 44 43 42 44 24 50 25 50 52 7 1 
Route #6: 1 9 53 14 55 14 28 14 9 47 1 
Cost 615.0
